p cnf 22 16
8 22 -3 18 13 0
16 -11 -21 -18 -1 -5 -7 -6 -9 14 0
20 -6 0
-5 20 -1 4 -16 3 -19 7 -9 21 2 -10 -15 8 13 6 -17 -22 12 0
16 17 -4 14 13 -9 12 -3 -8 -15 0
7 4 0
21 -15 -13 -22 0
-8 16 21 0
1 12 -6 -3 7 15 4 19 21 -11 -17 -20 -18 10 2 14 -5 -9 -16 -22 -8 13 0
10 -12 8 3 18 17 5 -9 -14 21 7 -19 11 -16 -15 6 22 20 4 -1 0
13 14 -21 2 -3 17 -12 -1 -8 -20 19 0
15 11 -4 9 0
18 9 0
-13 7 0
-15 7 -1 16 11 2 -20 21 -9 10 -19 3 -8 14 0
18 -7 15 -20 17 -1 3 9 -16 4 -11 0
